(declare-fun M () Int)
(declare-fun N () Int)
(declare-fun i () Int)
(declare-fun j_0 () Int)
(declare-fun j_1 () Int)
(declare-fun k_0 () Int)
(declare-fun k_1 () Int)

(assert (and
  (forall ((j_0 Int) (j_1 Int) (k_1 Int))
    (or
      (not (<= j_1 (+ i 1)))
      (not (= i (+ i 1)))
      (not (= j_0 j_1))
      (not (<= 0 k_1))
      (not (<= k_1 (- M 1)))
      (not (<= j_0 i))
      (not (<= 0 j_0))
      (not (<= 0 j_1))
    )
  )
  (and
    (<= j_1 (+ i 1))
    (<= 0 k_1)
    (<= k_1 (- M 1))
    (<= 1 (- N 1))
    (<= 0 k_0)
    (<= k_0 (- M 1))
    (<= 0 i)
    (<= j_0 i)
    (<= (+ i 1) (- N 1))
    (<= 0 j_0)
    (<= 0 j_1)
  )
  (forall ((j_0 Int) (j_1 Int) (k_0 Int) (k_1 Int))
    (or
      (not (<= j_1 (+ i 1)))
      (not (= i (+ i 1)))
      (not (= j_0 j_1))
      (not (<= 0 k_1))
      (not (<= k_1 (- M 1)))
      (not (<= 0 k_0))
      (not (<= k_0 (- M 1)))
      (not (<= j_0 i))
      (not (<= 0 j_0))
      (not (<= 0 j_1))
    )
  )
  (forall ((j_0 Int) (j_1 Int) (k_0 Int))
    (or
      (not (<= j_1 (+ i 1)))
      (not (= i (+ i 1)))
      (not (= j_0 j_1))
      (not (<= 0 k_0))
      (not (<= k_0 (- M 1)))
      (not (<= j_0 i))
      (not (<= 0 j_0))
      (not (<= 0 j_1))
    )
  )
  (forall ((j_0 Int) (j_1 Int))
    (or
      (not (<= j_1 (+ i 1)))
      (not (= i (+ i 1)))
      (not (= j_0 j_1))
      (not (<= j_0 i))
      (not (<= 0 j_0))
      (not (<= 0 j_1))
    )
  )
))

(check-sat)